c clasp version 2.1.1
c Reading from p56.cnf
c Solving...
s SATISFIABLE

c Models        : 1+    
c Time          : 1.885s (Solving: 0.44s 1st Model: 0.44s Unsat: 0.00s)
c CPU Time      : 1.880s
c Choices       : 15243
c Conflicts     : 974
c Restarts      : 4      (Average: 243.50 Last: 151)

c Variables     : 226788 (Eliminated: 70838 Frozen:    0)
c Constraints   : 261647 (Binary: 64.6% Ternary: 34.2% Other:  1.2%)
c Lemmas        : 974    (Binary:  0.2% Ternary:  1.1% Other: 98.7%)
c   Conflict    : 974    (Average Length: 52.6) 
c   Loop        : 0      (Average Length: 0.0) 
c   Other       : 0      (Average Length: 0.0)
c   Deleted     : 0     
